p edge 309 289
e 1 2
e 1 3
e 1 4
e 1 5
e 1 6
e 1 7
e 1 8
e 1 9
e 1 10
e 1 11
e 1 12
e 13 14
e 13 15
e 13 16
e 13 17
e 13 18
e 13 19
e 13 20
e 13 21
e 13 22
e 13 23
e 13 24
e 25 26
e 25 27
e 25 28
e 25 29
e 25 30
e 25 31
e 25 32
e 25 33
e 25 34
e 25 35
e 25 36
e 25 37
e 25 38
e 25 39
e 25 40
e 25 41
e 25 42
e 25 43
e 25 44
e 45 46
e 45 47
e 45 48
e 45 49
e 45 50
e 45 51
e 45 52
e 45 53
e 45 54
e 45 55
e 45 56
e 57 58
e 57 59
e 57 60
e 57 61
e 57 62
e 57 63
e 57 64
e 57 65
e 57 66
e 57 67
e 57 68
e 57 69
e 57 70
e 57 71
e 57 72
e 73 74
e 73 75
e 73 76
e 73 77
e 73 78
e 73 79
e 73 80
e 73 81
e 73 82
e 73 83
e 84 85
e 84 86
e 84 87
e 84 88
e 84 89
e 84 90
e 84 91
e 84 92
e 84 93
e 84 94
e 84 95
e 84 96
e 84 97
e 84 98
e 84 99
e 84 100
e 101 102
e 101 103
e 101 104
e 101 105
e 101 106
e 101 107
e 101 108
e 101 109
e 101 110
e 101 111
e 112 113
e 112 114
e 112 115
e 112 116
e 112 117
e 112 118
e 112 119
e 112 120
e 112 121
e 112 122
e 112 123
e 112 124
e 112 125
e 112 126
e 112 127
e 112 128
e 112 129
e 112 130
e 112 131
e 112 132
e 133 134
e 133 135
e 133 136
e 133 137
e 133 138
e 133 139
e 133 140
e 133 141
e 133 142
e 133 143
e 133 144
e 133 145
e 133 146
e 133 147
e 133 148
e 133 149
e 150 151
e 150 152
e 150 153
e 150 154
e 150 155
e 150 156
e 150 157
e 150 158
e 150 159
e 150 160
e 150 161
e 150 162
e 150 163
e 150 164
e 150 165
e 150 166
e 150 167
e 150 168
e 169 170
e 169 171
e 169 172
e 169 173
e 169 174
e 169 175
e 169 176
e 169 177
e 169 178
e 169 179
e 169 180
e 169 181
e 169 182
e 169 183
e 169 184
e 169 185
e 186 187
e 186 188
e 186 189
e 186 190
e 186 191
e 186 192
e 186 193
e 186 194
e 186 195
e 186 196
e 186 197
e 186 198
e 186 199
e 186 200
e 201 202
e 201 203
e 201 204
e 201 205
e 201 206
e 201 207
e 201 208
e 201 209
e 201 210
e 201 211
e 201 212
e 213 214
e 213 215
e 213 216
e 213 217
e 213 218
e 213 219
e 213 220
e 213 221
e 213 222
e 213 223
e 213 224
e 213 225
e 213 226
e 213 227
e 213 228
e 213 229
e 213 230
e 231 232
e 231 233
e 231 234
e 231 235
e 231 236
e 231 237
e 231 238
e 231 239
e 231 240
e 231 241
e 231 242
e 231 243
e 231 244
e 231 245
e 231 246
e 231 247
e 231 248
e 231 249
e 231 250
e 251 252
e 251 253
e 251 254
e 251 255
e 251 256
e 251 257
e 251 258
e 251 259
e 251 260
e 251 261
e 251 262
e 251 263
e 251 264
e 251 265
e 251 266
e 251 267
e 251 268
e 251 269
e 251 270
e 251 271
e 272 273
e 272 274
e 272 275
e 272 276
e 272 277
e 272 278
e 272 279
e 272 280
e 272 281
e 272 282
e 283 284
e 283 285
e 283 286
e 283 287
e 283 288
e 283 289
e 283 290
e 283 291
e 283 292
e 283 293
e 283 294
e 295 296
e 295 297
e 295 298
e 295 299
e 295 300
e 295 301
e 295 302
e 295 303
e 295 304
e 295 305
e 295 306
e 295 307
e 295 308
e 295 309
